10 6 15 4 11 14 8 17 12 9 18 19 0 1 5 13 2 16 7 3  
10 6 15 4 18 14 7 8 11 17 12 9 19 5 2 13 0 1 16 3  
10 6 15 4 11 14 5 18 19 8 7 9 1 17 12 0 13 2 16 3  
10 6 15 4 18 14 11 7 8 5 17 12 9 19 2 1 0 13 16 3  
10 6 15 4 11 14 5 8 18 17 19 12 7 9 1 0 13 2 16 3  
10 6 15 4 18 14 7 8 11 17 12 9 19 5 2 13 0 1 16 3  
10 6 15 4 11 14 8 17 12 0 18 19 16 5 9 13 7 3 1 2  
10 6 15 4 11 14 7 18 8 17 19 12 5 9 1 0 13 2 16 3  
10 6 15 4 11 14 8 17 12 0 18 19 16 5 9 13 7 3 1 2  
10 6 15 4 14 12 0 11 8 17 18 19 16 5 9 13 7 3 1 2  
10 6 15 4 11 18 14 7 8 17 12 9 19 16 5 0 1 13 2 3  
10 6 15 4 11 14 5 8 18 17 19 12 7 9 13 0 1 2 16 3  
10 6 15 4 14 11 8 17 12 9 18 19 7 1 0 13 16 5 2 3  
10 6 15 4 18 14 7 8 11 17 12 9 19 5 2 13 0 1 16 3  
10 6 15 4 14 11 8 17 12 0 18 19 16 5 7 9 13 2 3 1  
10 6 15 4 14 12 0 11 8 17 18 19 16 5 9 13 7 1 2 3  
10 6 15 4 11 14 5 18 17 8 19 12 7 9 2 13 16 0 1 3  
10 6 15 4 18 14 7 8 11 17 12 9 19 1 0 13 16 5 2 3  
10 6 15 4 18 14 11 7 8 17 12 9 19 5 2 13 16 0 1 3  
10 6 15 4 14 12 0 11 8 17 18 19 16 5 9 13 7 2 1 3  
10 6 15 4 11 18 14 7 8 17 12 9 19 0 1 13 16 5 2 3  
10 6 15 4 14 11 5 18 8 17 19 12 7 9 1 0 13 2 16 3  
10 6 15 4 11 14 8 17 12 9 18 19 7 1 0 13 16 5 2 3  
10 6 15 4 14 11 5 18 19 8 17 12 9 7 2 13 16 0 1 3  
10 6 15 4 14 11 5 8 18 17 19 12 7 9 13 0 1 2 16 3  
10 6 15 4 14 11 5 18 8 17 19 12 7 9 2 13 0 16 1 3  
10 6 15 4 14 8 0 11 12 17 18 19 16 5 9 13 7 2 3 1  
10 6 15 4 18 14 7 8 11 17 12 9 19 5 2 1 0 13 16 3  
10 6 15 4 14 11 8 17 12 9 18 19 7 1 0 13 16 5 2 3  
10 6 15 4 11 14 8 0 12 17 18 19 16 5 9 13 7 1 2 3  
10 6 15 4 18 14 11 7 8 17 12 9 19 16 5 0 13 2 3 1  
10 6 15 4 18 14 11 7 8 17 12 9 19 16 0 1 5 3 2 13  
10 6 15 4 14 11 5 18 8 17 19 12 7 9 1 0 2 13 16 3  
10 6 15 4 18 14 7 8 11 17 12 9 19 16 5 0 3 1 2 13  
10 6 15 4 14 11 8 17 12 0 18 19 16 5 9 13 7 2 1 3  
10 6 15 4 18 14 11 7 8 17 12 9 19 5 2 13 16 0 1 3  
10 6 15 4 14 12 0 8 11 17 18 19 16 5 9 13 7 3 1 2  
10 6 15 4 18 14 11 7 8 17 12 5 9 19 1 0 13 2 16 3  
10 6 15 4 14 11 8 17 12 9 18 19 0 1 5 13 2 16 7 3  
10 6 15 4 18 14 11 7 8 17 12 9 19 16 5 2 0 1 13 3  
10 6 15 4 18 14 11 7 8 17 12 9 19 5 2 0 1 13 16 3  
10 6 15 4 11 14 8 17 12 0 18 19 16 5 9 13 7 2 1 3  
10 6 15 4 18 14 11 7 8 17 12 9 19 16 5 0 2 13 1 3  
10 6 15 4 11 14 8 17 12 0 18 19 16 5 9 13 7 2 1 3  
10 6 15 4 18 14 11 7 8 17 12 9 19 5 1 0 13 2 16 3  
